17	4
17	15	17	17	
0	0	0	0	0	3	2	3	4	
10	6	9	7	10	3	5	15	17	
2	5	6	6	5	3	6	11	17	
8	2	7	6	2	3	9	14	17	
5	2	1	4	8	3	7	8	17	
200	3	1	9	7	3	10	17	17	
200	5	2	3	6	1	12	
25	2	3	9	3	1	11	
75	6	10	3	2	1	17	
25	9	1	1	9	2	16	17	
225	8	6	1	5	1	13	
250	9	1	8	7	2	17	17	
1	5	3	1	10	1	17	
6	1	9	5	5	1	17	
9	10	6	5	2	2	17	17	
7	4	1	9	6	1	17	
0	0	0	0	0	0	
